p cnf 14 64
6 -11 -12 0
-3 -8 -14 0
-9 10 14 0
-4 -11 12 0
3 6 -12 0
-1 -5 -12 0
-7 11 12 0
4 10 -11 0
2 3 -4 0
1 4 5 0
-5 -10 14 0
8 9 -13 0
3 -11 -12 0
7 -12 14 0
-3 -8 -10 0
4 -7 -9 0
5 -6 -14 0
-5 -7 -12 0
6 -9 -11 0
5 -8 -10 0
2 6 -7 0
-4 7 -8 0
-3 7 -9 0
-4 6 8 0
3 11 -12 0
-6 7 8 0
3 5 -10 0
-5 8 10 0
-3 -6 11 0
-3 5 10 0
-4 10 -13 0
-6 -8 11 0
5 10 13 0
-5 10 -13 0
9 -10 13 0
-9 -11 -13 0
-5 11 13 0
-2 7 11 0
6 12 13 0
-10 11 -13 0
1 -12 14 0
-3 -7 -10 0
4 -6 -10 0
4 -7 8 0
3 11 -14 0
-5 10 -11 0
-6 8 14 0
-1 -7 9 0
-4 11 -13 0
2 -3 12 0
-4 5 10 0
3 -8 13 0
-2 10 14 0
5 6 -9 0
-3 10 -12 0
7 12 13 0
6 -9 14 0
-1 7 -11 0
2 -5 6 0
-1 3 -6 0
2 -9 11 0
7 8 -9 0
-5 -11 -13 0
2 -9 -12 0
